(set-info :source |printed by MathSAT|)
(declare-fun |!{$(in_main#0)<CELLCOUNT_3>}| () Int)
(declare-fun |!{$(in_main#0)<CELLCOUNT_3>}.next| () Int)
(declare-fun |!{$(in_main#0)<i>}| () Int)
(declare-fun |!{$(in_main#0)<i>}.next| () Int)
(declare-fun |!{$(in_main#0)<j>}| () Int)
(declare-fun |!{$(in_main#0)<j>}.next| () Int)
(declare-fun |!{$(in_main#0)<k>}| () Int)
(declare-fun |!{$(in_main#0)<k>}.next| () Int)
(declare-fun |!{$(in_main#0)<volArray.1>}| () (Array Int Int))
(declare-fun |!{$(in_main#0)<volArray.1>}.next| () (Array Int Int))
(declare-fun |!{$(in_main#0)<$(in___VERIFIER_nondet_int#0)<h#<__VERIFIER_nondet_int.return>>>}| () Int)
(declare-fun !pc () Int)
(declare-fun !pc.next () Int)
(declare-fun |%{$(in_main#0)<j>}#1| () Int)
(declare-fun |%{$(in_main#0)<k>}#1| () Int)
(declare-fun |%{$(in_main#0)<volArray.1>}#1| () (Array Int Int))
(declare-fun |%{$(in_main#0)<volArray.1>}#2| () (Array Int Int))
(define-fun .def_28 () Int (! !pc :next !pc.next))
(define-fun .def_31 () Bool (! (= .def_28 2) :init true))
(define-fun .def_180 () Bool (= .def_28 45))
(define-fun .def_61 () Bool (= !pc.next 37))
(define-fun .def_183 () Bool (and .def_61 .def_180))
(define-fun .def_172 () Int (* (- 1) |!{$(in_main#0)<i>}.next|))
(define-fun .def_10 () Int (! |!{$(in_main#0)<i>}| :next |!{$(in_main#0)<i>}.next|))
(define-fun .def_173 () Int (+ .def_10 .def_172))
(define-fun .def_174 () Bool (= .def_173 (- 1)))
(define-fun .def_8 () Int (! |!{$(in_main#0)<CELLCOUNT_3>}| :next |!{$(in_main#0)<CELLCOUNT_3>}.next|))
(define-fun .def_80 () Bool (= .def_8 |!{$(in_main#0)<CELLCOUNT_3>}.next|))
(define-fun .def_175 () Bool (and .def_80 .def_174))
(define-fun .def_12 () Int (! |!{$(in_main#0)<j>}| :next |!{$(in_main#0)<j>}.next|))
(define-fun .def_84 () Bool (= .def_12 |!{$(in_main#0)<j>}.next|))
(define-fun .def_176 () Bool (and .def_84 .def_175))
(define-fun .def_14 () Int (! |!{$(in_main#0)<k>}| :next |!{$(in_main#0)<k>}.next|))
(define-fun .def_86 () Bool (= .def_14 |!{$(in_main#0)<k>}.next|))
(define-fun .def_177 () Bool (and .def_86 .def_176))
(define-fun .def_16 () (Array Int Int) (! |!{$(in_main#0)<volArray.1>}| :next |!{$(in_main#0)<volArray.1>}.next|))
(define-fun .def_88 () Bool (= .def_16 |!{$(in_main#0)<volArray.1>}.next|))
(define-fun .def_178 () Bool (and .def_88 .def_177))
(define-fun .def_142 () Bool (<= 1 .def_12))
(define-fun .def_161 () Bool (not .def_142))
(define-fun .def_179 () Bool (and .def_161 .def_178))
(define-fun .def_184 () Bool (and .def_179 .def_183))
(define-fun .def_135 () Bool (= !pc.next 45))
(define-fun .def_181 () Bool (and .def_135 .def_180))
(define-fun .def_168 () Bool (= |!{$(in_main#0)<volArray.1>}.next| |%{$(in_main#0)<volArray.1>}#2|))
(define-fun .def_163 () Int (* (- 1) |!{$(in_main#0)<j>}.next|))
(define-fun .def_164 () Int (+ .def_12 .def_163))
(define-fun .def_165 () Bool (= .def_164 1))
(define-fun .def_82 () Bool (= .def_10 |!{$(in_main#0)<i>}.next|))
(define-fun .def_91 () Bool (and .def_80 .def_82))
(define-fun .def_166 () Bool (and .def_91 .def_165))
(define-fun .def_167 () Bool (and .def_86 .def_166))
(define-fun .def_169 () Bool (and .def_167 .def_168))
(define-fun .def_145 () Int (* (- 1) .def_12))
(define-fun .def_144 () Int (* 3 .def_10))
(define-fun .def_146 () Int (+ .def_144 .def_145))
(define-fun .def_149 () (Array Int Int) (store .def_16 .def_146 0))
(define-fun .def_155 () Bool (= .def_149 |%{$(in_main#0)<volArray.1>}#2|))
(define-fun .def_143 () Bool (<= 2 .def_12))
(define-fun .def_148 () Bool (not .def_143))
(define-fun .def_157 () Bool (and .def_148 .def_155))
(define-fun .def_147 () (Array Int Int) (store .def_16 .def_146 .def_12))
(define-fun .def_154 () Bool (= .def_147 |%{$(in_main#0)<volArray.1>}#2|))
(define-fun .def_156 () Bool (and .def_143 .def_154))
(define-fun .def_158 () Bool (or .def_156 .def_157))
(define-fun .def_170 () Bool (and .def_158 .def_169))
(define-fun .def_171 () Bool (and .def_142 .def_170))
(define-fun .def_182 () Bool (and .def_171 .def_181))
(define-fun .def_185 () Bool (or .def_182 .def_184))
(define-fun .def_133 () Bool (= .def_28 37))
(define-fun .def_111 () Bool (= !pc.next 72))
(define-fun .def_138 () Bool (and .def_111 .def_133))
(define-fun .def_129 () Bool (= |!{$(in_main#0)<k>}.next| 0))
(define-fun .def_92 () Bool (and .def_84 .def_91))
(define-fun .def_130 () Bool (and .def_92 .def_129))
(define-fun .def_131 () Bool (and .def_88 .def_130))
(define-fun .def_122 () Bool (<= .def_10 .def_8))
(define-fun .def_123 () Bool (not .def_122))
(define-fun .def_132 () Bool (and .def_123 .def_131))
(define-fun .def_139 () Bool (and .def_132 .def_138))
(define-fun .def_136 () Bool (and .def_133 .def_135))
(define-fun .def_124 () Bool (= |!{$(in_main#0)<j>}.next| 3))
(define-fun .def_125 () Bool (and .def_91 .def_124))
(define-fun .def_126 () Bool (and .def_86 .def_125))
(define-fun .def_127 () Bool (and .def_88 .def_126))
(define-fun .def_128 () Bool (and .def_122 .def_127))
(define-fun .def_137 () Bool (and .def_128 .def_136))
(define-fun .def_140 () Bool (or .def_137 .def_139))
(define-fun .def_115 () Bool (= !pc.next 0))
(define-fun .def_106 () Bool (= .def_28 72))
(define-fun .def_116 () Bool (and .def_106 .def_115))
(define-fun .def_66 () Int (* (- 1) .def_14))
(define-fun .def_64 () Int (* 3 .def_8))
(define-fun .def_67 () Int (+ .def_64 .def_66))
(define-fun .def_68 () Bool (<= .def_67 0))
(define-fun .def_100 () Bool (and .def_68 .def_80))
(define-fun .def_101 () Bool (and .def_82 .def_100))
(define-fun .def_102 () Bool (and .def_84 .def_101))
(define-fun .def_103 () Bool (and .def_86 .def_102))
(define-fun .def_104 () Bool (and .def_88 .def_103))
(define-fun .def_117 () Bool (and .def_104 .def_116))
(define-fun .def_112 () Bool (and .def_106 .def_111))
(define-fun .def_93 () Int (* (- 1) |!{$(in_main#0)<k>}.next|))
(define-fun .def_94 () Int (+ .def_14 .def_93))
(define-fun .def_95 () Bool (= .def_94 (- 1)))
(define-fun .def_96 () Bool (and .def_92 .def_95))
(define-fun .def_97 () Bool (and .def_88 .def_96))
(define-fun .def_70 () Int (select .def_16 .def_14))
(define-fun .def_72 () Bool (= .def_70 0))
(define-fun .def_71 () Bool (<= 2 .def_70))
(define-fun .def_73 () Bool (or .def_71 .def_72))
(define-fun .def_74 () Int (ite .def_73 1 0))
(define-fun .def_75 () Bool (= .def_74 0))
(define-fun .def_76 () Bool (not .def_75))
(define-fun .def_98 () Bool (and .def_76 .def_97))
(define-fun .def_69 () Bool (not .def_68))
(define-fun .def_99 () Bool (and .def_69 .def_98))
(define-fun .def_113 () Bool (and .def_99 .def_112))
(define-fun .def_108 () Bool (= !pc.next 92))
(define-fun .def_109 () Bool (and .def_106 .def_108))
(define-fun .def_81 () Bool (and .def_75 .def_80))
(define-fun .def_83 () Bool (and .def_81 .def_82))
(define-fun .def_85 () Bool (and .def_83 .def_84))
(define-fun .def_87 () Bool (and .def_85 .def_86))
(define-fun .def_89 () Bool (and .def_87 .def_88))
(define-fun .def_90 () Bool (and .def_69 .def_89))
(define-fun .def_110 () Bool (and .def_90 .def_109))
(define-fun .def_114 () Bool (or .def_110 .def_113))
(define-fun .def_118 () Bool (or .def_114 .def_117))
(define-fun .def_62 () Bool (and .def_31 .def_61))
(define-fun .def_57 () Bool (= |!{$(in_main#0)<volArray.1>}.next| |%{$(in_main#0)<volArray.1>}#1|))
(define-fun .def_55 () Bool (= |!{$(in_main#0)<k>}.next| |%{$(in_main#0)<k>}#1|))
(define-fun .def_53 () Bool (= |!{$(in_main#0)<j>}.next| |%{$(in_main#0)<j>}#1|))
(define-fun .def_51 () Bool (= |!{$(in_main#0)<i>}.next| 1))
(define-fun .def_50 () Bool (= |!{$(in_main#0)<CELLCOUNT_3>}.next| |!{$(in_main#0)<$(in___VERIFIER_nondet_int#0)<h#<__VERIFIER_nondet_int.return>>>}|))
(define-fun .def_52 () Bool (and .def_50 .def_51))
(define-fun .def_54 () Bool (and .def_52 .def_53))
(define-fun .def_56 () Bool (and .def_54 .def_55))
(define-fun .def_58 () Bool (and .def_56 .def_57))
(define-fun .def_45 () Bool (<= |!{$(in_main#0)<$(in___VERIFIER_nondet_int#0)<h#<__VERIFIER_nondet_int.return>>>}| 0))
(define-fun .def_46 () Bool (not .def_45))
(define-fun .def_47 () Int (ite .def_46 1 0))
(define-fun .def_48 () Bool (= .def_47 0))
(define-fun .def_49 () Bool (not .def_48))
(define-fun .def_59 () Bool (and .def_49 .def_58))
(define-fun .def_63 () Bool (and .def_59 .def_62))
(define-fun .def_119 () Bool (or .def_63 .def_118))
(define-fun .def_141 () Bool (or .def_119 .def_140))
(define-fun .def_186 () Bool (! (or .def_141 .def_185) :trans true))
(define-fun .def_120 () Bool (= .def_28 92))
(define-fun .def_187 () Bool (! (not .def_120) :invar-property 0 :invar-property-name ||))
(assert true)
